db/data/1014219230971158933273023643144627315.z3.out
-------------------
2500.388724906
